(set-info :origin "Verification conditions for the caml program
  
  let rec bot _ = bot ()
  let fail _ = assert false
  
  
     let lambda_1031 set_flag_f_1089 s_f_x_1086 x_1033 = x_1033 + 1
  
     let rec f_without_checking_1098 set_flag_f_1089 s_f_x_1086 x_1032 =
       let set_flag_f_1089 = true
       in
       let s_f_x_1086 = x_1032
       in
         if x_1032 > 0 then
           f_without_checking_1098 set_flag_f_1089 s_f_x_1086 (x_1032 - 1)
         else
           lambda_1031
  
     let rec f_1030 prev_set_flag_f_1088 s_prev_f_x_1087 x_1032 =
       let u =     if prev_set_flag_f_1088 then
                if (0 * 1) + (1 * s_prev_f_x_1087) > (0 * 1) + (1 * x_1032) &&
                   (0 * 1) + (1 * x_1032) >= 0 then
                  ()
                else
                  let u_3528 = fail ()
                  in
                    bot()
       else () in
              f_without_checking_1098 prev_set_flag_f_1088 s_prev_f_x_1087 x_1032
  
     let g_1034 = f_1030 false 0 1
  
     let main_1035 set_flag_f_1089 s_f_x_1086 u_1036 =
       g_1034 set_flag_f_1089 s_f_x_1086 2
  
  let main =
       main_1035 false 0 ()
")

(set-logic HORN)

(declare-fun |f_1030$unknown:9|
  ( Int Int Int Int Int Int Int ) Bool
)

(declare-fun |f_without_checking_1098$unknown:16|
  ( Int Int Int Int Int Int Int ) Bool
)

(declare-fun |fail$unknown:18|
  ( Int Int ) Bool
)

(declare-fun |bot$unknown:2|
  ( Int Int ) Bool
)

(assert
  (forall ( (|$alpha-1:$$tmp::1| Int) (|$knormal:2| Int) )
    (=>
      ( and (|bot$unknown:2| |$knormal:2| 1) )
      (|bot$unknown:2| |$knormal:2| |$alpha-1:$$tmp::1|)
    )
  )
)
(assert
  (forall ( (|$V-reftype:24| Int) (|$V-reftype:26| Int) (|$V-reftype:28| Int) (|$V-reftype:29| Int) (|$knormal:28| Int) (|$knormal:30| Int) )
    (=>
      ( and (|bot$unknown:2| |$knormal:28| 1) (|f_without_checking_1098$unknown:16| |$V-reftype:29| |$V-reftype:28| |$V-reftype:26| |$V-reftype:24| 1 0 0) (|fail$unknown:18| |$knormal:30| 1) (not (= 0 0)) (not (and (> (+ 0 0) (+ 0 1)) (>= (+ 0 1) 0))) )
      (|f_1030$unknown:9| |$V-reftype:29| |$V-reftype:28| |$V-reftype:26| |$V-reftype:24| 1 0 0)
    )
  )
)
(assert
  (forall ( (|$V-reftype:24| Int) (|$V-reftype:26| Int) (|$V-reftype:28| Int) (|$V-reftype:29| Int) )
    (=>
      ( and (|f_without_checking_1098$unknown:16| |$V-reftype:29| |$V-reftype:28| |$V-reftype:26| |$V-reftype:24| 1 0 0) (not (= 0 0)) (>= (+ 0 1) 0) (> (+ 0 0) (+ 0 1)) )
      (|f_1030$unknown:9| |$V-reftype:29| |$V-reftype:28| |$V-reftype:26| |$V-reftype:24| 1 0 0)
    )
  )
)
(assert
  (forall ( (|$V-reftype:24| Int) (|$V-reftype:26| Int) (|$V-reftype:28| Int) (|$V-reftype:29| Int) )
    (=>
      ( and (|f_without_checking_1098$unknown:16| |$V-reftype:29| |$V-reftype:28| |$V-reftype:26| |$V-reftype:24| 1 0 0) (not (not (= 0 0))) )
      (|f_1030$unknown:9| |$V-reftype:29| |$V-reftype:28| |$V-reftype:26| |$V-reftype:24| 1 0 0)
    )
  )
)
(assert
  (forall ( (|$V-reftype:24| Int) (|$V-reftype:26| Int) (|$V-reftype:28| Int) (|$V-reftype:29| Int) (|$alpha-6:set_flag_f_1089| Int) (|$alpha-7:s_f_x_1086| Int) (|$alpha-8:x_1032| Int) )
    (=>
      ( and (|f_without_checking_1098$unknown:16| |$V-reftype:29| |$V-reftype:28| |$V-reftype:26| |$V-reftype:24| (- |$alpha-8:x_1032| 1) |$alpha-8:x_1032| 1) (> |$alpha-8:x_1032| 0) )
      (|f_without_checking_1098$unknown:16| |$V-reftype:29| |$V-reftype:28| |$V-reftype:26| |$V-reftype:24| |$alpha-8:x_1032| |$alpha-7:s_f_x_1086| |$alpha-6:set_flag_f_1089|)
    )
  )
)
(assert
  (forall ( (|$V-reftype:34| Int) (|$V-reftype:36| Int) (|$V-reftype:38| Int) (|$alpha-6:set_flag_f_1089| Int) (|$alpha-7:s_f_x_1086| Int) (|$alpha-8:x_1032| Int) )
    (=>
      ( and (not (> |$alpha-8:x_1032| 0)) )
      (|f_without_checking_1098$unknown:16| (+ |$V-reftype:38| 1) |$V-reftype:38| |$V-reftype:36| |$V-reftype:34| |$alpha-8:x_1032| |$alpha-7:s_f_x_1086| |$alpha-6:set_flag_f_1089|)
    )
  )
)
(check-sat)

(get-model)

